\ENCODING=ISO-8859-1
\Problem name: IloCplex

Minimize
 obj: 131 x0 + 346 x1 + 245 x2 + 287 x3 + 130 x5 + 203 x6 + 324 x7 + 303 x8
      + 327 x9 + 209 x10 + 301 x11 + 286 x12 + 298 x13 + 124 x14 + 206 x16
      + 226 x17 + 340 x18 + 294 x19 + 182 x20 + 218 x21 + 182 x22 + 48 x25
      + 151 x28 + 187 x31 + 61 x32 + 82 x33 + 155 x34 + 58 x35 + 170 x36
      + 475 x37 + 404 x38 + 334 x39 + 403 x40 + 23 x41 + 335 x43 + 193 x44
      + 267 x45 + 307 x46 + 121 x47 + 274 x48 + 300 x49 + 261 x50 + 68 x51
      + 280 x52 + 285 x53 + 285 x54 + 261 x55 + 267 x57 + 285 x58 + 181 x59
      + 132 x61 + 199 x62 + 341 x64 + 267 x65 + 267 x68 + 77 x69 + 167 x70
      + 373 x71 + 169 x73 + 86 x75 + 22 x77 + 220 x78 + 83 x79 + 104 x80
      + 104 x81 + 373 x82 + 26 x83 + 241 x85 + 267 x87 + 192 x88 + 257 x89
      + 170 x90 + 91 x91 + 148 x92 + 197 x94 + 197 x95 + 137 x96
Subject To
 c0:   x0 + x73 + x84 + x97  = 1
 c1:   x1 + x34 + x49 + x72  = 1
 c2:   x2 + x48 + x76  = 1
 c3:   x3 + x31 + x63  = 1
 c4:   x4 + x69  = 1
 c5:   x5 + x47  = 1
 c6:   x6 + x46 + x57 + x90 + x92  = 1
 c7:   x7 + x56 + x85 + x91  = 1
 c8:   x8 + x32 + x37 + x71 + x82  = 1
 c9:   x9 + x31 + x33 + x73  = 1
 c10:  x0 + x83  = 1
 c11:  x3 + x32 + x41 + x79  = 1
 c12:  x10 + x34  = 1
 c13:  x2 + x77 + x88  = 1
 c14:  x5 + x92  = 1
 c15:  x6 + x47 + x48 + x50 + x55 + x58 + x71 + x82 + x96  = 1
 c16:  x1 + x35 + x45 + x85 + x91  = 1
 c17:  x16 + x36 + x49 + x57 + x89 + x90  = 1
 c18:  x11 + x37 + x69  = 1
 c19:  x12 + x46  = 1
 c20:  x8 + x33 + x64 + x78  = 1
 c21:  x13 + x35 + x60 + x83  = 1
 c22:  x14 + x44 + x50 + x55 + x71 + x82 + x96  = 1
 c23:  x10 + x36 + x41 + x59 + x77  = 1
 c24:  x7 + x57 + x58 + x85 + x89  = 1
 c25:  x15 + x80 + x81  = 1
 c26:  x9 + x38 + x42 + x45 + x75 + x79  = 1
 c27:  x16 + x37 + x74  = 1
 c28:  x17 + x43 + x87  = 1
 c29:  x18 + x28 + x94 + x95  = 1
 c30:  x11 + x39 + x40 + x58 + x65 + x68 + x88 + x89  = 1
 c31:  x12 + x53 + x54 + x64 + x70 + x78  = 1
 c32:  x14 + x45 + x50 + x55 + x75 + x80 + x81  = 1
 c33:  x17 + x44 + x59  = 1
 c34:  x13 + x38 + x40 + x43 + x53 + x54 + x64 + x65 + x68 + x87 + x94 + x95
        = 1
 c35:  x19 + x28 + x70  = 1
 c36:  x20 + x52 + x86  = 1
 c37:  x21 + x38 + x39 + x65 + x68 + x87 + x94 + x95  = 1
 c38:  x18 + x29 + x43 + x51 + x53 + x54 + x62  = 1
 c39:  x22 + x40 + x61  = 1
 c40:  x25 + x51  = 1
 c41:  x21 + x66 + x67  = 1
 c42:  x19 + x30  = 1
 c43:  x20  = 1
 c44:  x23  = 1
 c45:  x24 + x61 + x62  = 1
 c46:  x25 + x52  = 1
 c47:  x26  = 1
 c48:  x22 + x93  = 1
 c49:  x25  = 1
 c_nj: x0 + x1 + x2 + x3 + x5 + x6 + x7 + x8 + x9 + x10 + x11 + x12 + x13 + x14
       + x16 + x17 + x18 + x19 + x20 + x21 + x22 + x25 + x4 + x15 + x23 + x24
       + x26 + x28 + x29 + x30 + x31 + x32 + x33 + x34 + x35 + x36 + x37 + x38
       + x39 + x40 + x41 + x42 + x43 + x44 + x45 + x46 + x47 + x48 + x49 + x50
       + x51 + x52 + x53 + x54 + x55 + x56 + x57 + x58 + x59 + x60 + x61 + x62
       + x63 + x64 + x65 + x66 + x67 + x68 + x69 + x70 + x71 + x72 + x73 + x74
       + x75 + x76 + x77 + x78 + x79 + x80 + x81 + x82 + x83 + x84 + x85 + x86
       + x87 + x88 + x89 + x90 + x91 + x92 + x93 + x94 + x95 + x96 + x97  = 27
Bounds
 0 <= x0 <= 1
 0 <= x1 <= 1
 0 <= x2 <= 1
 0 <= x3 <= 1
 0 <= x5 <= 1
 0 <= x6 <= 1
 0 <= x7 <= 1
 0 <= x8 <= 1
 0 <= x9 <= 1
 0 <= x10 <= 1
 0 <= x11 <= 1
 0 <= x12 <= 1
 0 <= x13 <= 1
 0 <= x14 <= 1
 0 <= x16 <= 1
 0 <= x17 <= 1
 0 <= x18 <= 1
 0 <= x19 <= 1
 0 <= x20 <= 1
 0 <= x21 <= 1
 0 <= x22 <= 1
 0 <= x25 <= 1
 0 <= x4 <= 1
 0 <= x15 <= 1
 0 <= x23 <= 1
 0 <= x24 <= 1
 0 <= x26 <= 1
 0 <= x28 <= 1
 0 <= x29 <= 1
 0 <= x30 <= 1
 0 <= x31 <= 1
 0 <= x32 <= 1
 0 <= x33 <= 1
 0 <= x34 <= 1
 0 <= x35 <= 1
 0 <= x36 <= 1
 0 <= x37 <= 1
 0 <= x38 <= 1
 0 <= x39 <= 1
 0 <= x40 <= 1
 0 <= x41 <= 1
 0 <= x42 <= 1
 0 <= x43 <= 1
 0 <= x44 <= 1
 0 <= x45 <= 1
 0 <= x46 <= 1
 0 <= x47 <= 1
 0 <= x48 <= 1
 0 <= x49 <= 1
 0 <= x50 <= 1
 0 <= x51 <= 1
 0 <= x52 <= 1
 0 <= x53 <= 1
 0 <= x54 <= 1
 0 <= x55 <= 1
 0 <= x56 <= 1
 0 <= x57 <= 1
 0 <= x58 <= 1
 0 <= x59 <= 1
 0 <= x60 <= 1
 0 <= x61 <= 1
 0 <= x62 <= 1
 0 <= x63 <= 1
 0 <= x64 <= 1
 0 <= x65 <= 1
 0 <= x66 <= 1
 0 <= x67 <= 1
 0 <= x68 <= 1
 0 <= x69 <= 1
 0 <= x70 <= 1
 0 <= x71 <= 1
 0 <= x72 <= 1
 0 <= x73 <= 1
 0 <= x74 <= 1
 0 <= x75 <= 1
 0 <= x76 <= 1
 0 <= x77 <= 1
 0 <= x78 <= 1
 0 <= x79 <= 1
 0 <= x80 <= 1
 0 <= x81 <= 1
 0 <= x82 <= 1
 0 <= x83 <= 1
 0 <= x84 <= 1
 0 <= x85 <= 1
 0 <= x86 <= 1
 0 <= x87 <= 1
 0 <= x88 <= 1
 0 <= x89 <= 1
 0 <= x90 <= 1
 0 <= x91 <= 1
 0 <= x92 <= 1
 0 <= x93 <= 1
 0 <= x94 <= 1
 0 <= x95 <= 1
 0 <= x96 <= 1
 0 <= x97 <= 1
End
